NAME : LPS-n11-m285
COMMENT : (Lartu-Peter-Santi Plot, instance 3485 out of 39200. 11 customers.)
TYPE : CVRP
DIMENSION : 11
EDGE_WEIGHT_TYPE : EUC_2D
CAPACITY : 129
NODE_COORD_SECTION
 1 8 5
 2 4 64
 3 68 11
 4 93 53
 5 32 85
 6 51 40
 7 9 76
 8 41 0
 9 68 3
 10 15 62
 11 16 84
DEMAND_SECTION
1 0
2 69
3 63
4 25
5 118
6 3
7 7
8 95
9 127
10 121
11 101
DEPOT_SECTION
 1
 -1
EOF
